
Log started (V22.2.0.0) Tue Jun  9 08:33:10 2026

New value for time limit in seconds: 120
New value for default parallel thread count: 4
New value for mixed integer optimality gap tolerance: 0.001
New value for level of mixed integer node display: 2

Problem 'results/InstanceA6_bigm_finsteps123.lp' read.
Read time = 0.00 sec. (0.08 ticks)
Version identifier: 22.2.0.0 | 2026-05-04 | 5dff98e58
CPXPARAM_Threads                                 4
CPXPARAM_TimeLimit                               120
CPXPARAM_MIP_Tolerances_MIPGap                   0.001
Tried aggregator 2 times.
MIP Presolve eliminated 17 rows and 17 columns.
MIP Presolve modified 6603 coefficients.
Aggregator did 149 substitutions.
Reduced MIP has 770 rows, 471 columns, and 2154 nonzeros.
Reduced MIP has 322 binaries, 0 generals, 0 SOSs, and 0 indicators.
Presolve time = 0.00 sec. (3.80 ticks)
Found incumbent of value 24.000000 after 0.00 sec. (4.96 ticks)
Probing time = 0.00 sec. (2.51 ticks)
Tried aggregator 1 time.
Detecting symmetries...
MIP Presolve modified 8 coefficients.
Reduced MIP has 770 rows, 471 columns, and 2154 nonzeros.
Reduced MIP has 322 binaries, 0 generals, 0 SOSs, and 0 indicators.
Presolve time = 0.00 sec. (1.26 ticks)
Probing time = 0.00 sec. (2.40 ticks)
Clique table members: 484.
MIP emphasis: balance optimality and feasibility.
MIP search method: dynamic search.
Parallel mode: deterministic, using up to 4 threads.
Root relaxation solution time = 0.00 sec. (4.04 ticks)

        Nodes                                         Cuts/
   Node  Left     Objective  IInf  Best Integer    Best Bound    ItCnt     Gap

*     0+    0                           24.0000        9.0000            62.50%
*     0+    0                           21.0000        9.0000            57.14%
*     0+    0                           15.0000        9.0000            40.00%
      0     0        9.0000     3       15.0000        9.0000      256   40.00%
*     0+    0                           11.0000        9.0000            18.18%
*     0+    0                           10.0000        9.0000            10.00%
      0     0        cutoff             10.0000        9.0000      258   10.00%
Elapsed time = 0.02 sec. (19.64 ticks, tree = 0.01 MB, solutions = 5)

Root node processing (before b&c):
  Real time             =    0.02 sec. (19.69 ticks)
Parallel b&c, 4 threads:
  Real time             =    0.01 sec. (0.20 ticks)
  Sync time (average)   =    0.00 sec.
  Wait time (average)   =    0.00 sec.
                          ------------
Total (root+branch&cut) =    0.02 sec. (19.89 ticks)

Solution pool: 5 solutions saved.

MIP - Integer optimal solution:  Objective =  1.0000000000e+01
Solution time =    0.02 sec.  Iterations = 258  Nodes = 0
Deterministic time = 19.89 ticks  (831.91 ticks/sec)


Incumbent solution written to file 'results/InstanceA6_bigm_finsteps123.sol'.
